* ; EXPECT: unsat
* ; COMMAND-LINE: 
* ; COMMAND-LINE: --solve-bv-as-int=sum
* (set-logic QF_BV)
* (declare-const v (_ BitVec 6))
* (assert (and (= (bvmul v v) (_ bv53 6)) (not (bvumulo v v))))
* (check-sat)
* unsat
* #variable= 149 #constraint= 239
-1 x65 -1 x67 +1 x46 >= -1;
+1 x67 +1 x63 -2 x56 >= 0;
-1 x90 +1 x93 >= 0;
-1 x67 -1 x63 +1 x56 >= -1;
+1 x83 +1 x88 +1 x86 +1 x90 -1 x93 >= 0;
-1 x67 -1 x64 +1 x57 >= -1;
-1 x67 -1 x66 +1 x59 >= -1;
+1 x69 -1 x84 = 0;
+1 x67 +1 x67 -2 x60 >= 0;
-1 x83 +1 x95 >= 0;
-1 x62 -1 x66 +1 x24 >= -1;
+1 x67 +1 x61 -2 x54 >= 0;
-1 x66 -1 x62 +1 x48 >= -1;
+1 x69 -1 x62 = 0;
+1 x71 -1 x90 = 0;
+1 x66 +1 x62 -2 x48 >= 0;
-1 x67 -1 x67 +1 x60 >= -1;
+1 x74 = 0;
-1 x66 -1 x66 +1 x52 >= -1;
+1 x67 +1 x66 -2 x59 >= 0;
-1 x61 -1 x65 +1 x16 >= -1;
+1 x71 -1 x64 = 0;
-1 x66 -1 x64 +1 x50 >= -1;
+1 x72 -1 x65 = 0;
-1 x4 +1 x3 >= 0;
+1 x67 +1 x64 -2 x57 >= 0;
+1 x68 -1 x61 = 0;
-1 x83 -1 x84 +1 x82 >= -1;
+1 x62 +1 x61 -2 x19 >= 0;
+1 x83 +1 x84 +1 x88 +1 x86 +1 x90 -1 x95 >= 0;
+1 x62 +1 x66 -2 x24 >= 0;
-1 x66 -1 x67 +1 x53 >= -1;
+1 x61 +1 x66 -2 x17 >= 0;
-1 x64 -1 x65 +1 x37 >= -1;
+1 x83 -1 x82 >= 0;
+1 x64 +1 x66 -2 x38 >= 0;
-1 x88 +1 x91 >= 0;
+1 x63 +1 x65 -2 x30 >= 0;
-1 x84 +1 x95 >= 0;
+1 x84 -1 x82 >= 0;
+1 x62 +1 x65 -2 x23 >= 0;
-1 x62 -1 x65 +1 x23 >= -1;
+1 x72 -1 x88 = 0;
+1 x62 +1 x63 -2 x21 >= 0;
-1 x63 -1 x61 +1 x26 >= -1;
+1 x63 +1 x62 -2 x27 >= 0;
-1 x86 -1 x87 +1 x85 >= -1;
+1 x63 +1 x61 -2 x26 >= 0;
-1 x63 -1 x62 +1 x27 >= -1;
+1 x70 -1 x63 = 0;
-1 x86 +1 x93 >= 0;
+1 x64 +1 x63 -2 x35 >= 0;
-1 x61 -1 x63 +1 x14 >= -1;
-1 x86 +1 x95 >= 0;
-1 x64 -1 x63 +1 x35 >= -1;
+1 x64 +1 x64 -2 x36 >= 0;
+1 x64 +1 x61 -2 x33 >= 0;
+1 x65 +1 x67 -2 x46 >= 0;
+1 x83 +1 x88 -1 x87 >= 0;
-1 x65 -1 x66 +1 x45 >= -1;
-1 x2 +1 x3 +1 x1 >= 0;
+1 x87 -1 x85 >= 0;
-1 x62 -1 x67 +1 x25 >= -1;
-1 x82 +1 x3 >= 0;
-1 x65 -1 x65 +1 x44 >= -1;
+1 x2 +1 x3 -1 x1 >= 0;
+1 x67 +1 x65 -2 x58 >= 0;
-1 x65 -1 x64 +1 x43 >= -1;
-1 x83 +1 x87 >= 0;
-1 x88 +1 x87 >= 0;
+1 x65 +1 x64 -2 x43 >= 0;
-1 x94 +1 x3 >= 0;
+1 x63 +1 x64 -2 x29 >= 0;
+1 x61 +1 x65 -2 x16 >= 0;
-1 x67 -1 x65 +1 x58 >= -1;
+1 x61 +1 x64 -2 x15 >= 0;
-1 x83 +1 x91 >= 0;
+1 x65 +1 x65 -2 x44 >= 0;
+1 x61 +1 x61 -2 x12 >= 0;
-1 x65 -1 x61 +1 x40 >= -1;
-1 x67 -1 x62 +1 x55 >= -1;
-1 x61 -1 x62 +1 x13 >= -1;
-1 x85 +1 x3 >= 0;
+1 x1 >= 1;
-1 x83 +1 x93 >= 0;
+1 x67 +1 x62 -2 x55 >= 0;
+1 x61 +1 x62 -2 x13 >= 0;
-1 x67 -1 x61 +1 x54 >= -1;
-1 x92 +1 x3 >= 0;
+1 x62 +1 x67 -2 x25 >= 0;
-1 x65 -1 x62 +1 x41 >= -1;
+1 x70 -1 x86 = 0;
+1 x65 +1 x63 -2 x42 >= 0;
+1 x86 -1 x85 >= 0;
-1 x65 -1 x63 +1 x42 >= -1;
+1 x95 -1 x94 >= 0;
-1 x88 -1 x93 +1 x92 >= -1;
+1 x64 +1 x65 -2 x37 >= 0;
+1 x61 +1 x67 -2 x18 >= 0;
-1 x66 -1 x61 +1 x47 >= -1;
-1 x61 -1 x64 +1 x15 >= -1;
-1 x88 +1 x95 >= 0;
+1 x65 +1 x61 -2 x40 >= 0;
+1 x2 = 1;
+1 x83 -1 x94 >= 0;
-1 x64 -1 x66 +1 x38 >= -1;
-1 x61 -1 x66 +1 x17 >= -1;
+1 x66 +1 x64 -2 x50 >= 0;
-1 x2 -1 x3 -1 x1 >= -2;
-1 x62 -1 x62 +1 x20 >= -1;
-1 x90 +1 x91 >= 0;
+1 x66 +1 x65 -2 x51 >= 0;
-1 x61 -1 x67 +1 x18 >= -1;
-1 x90 +1 x95 >= 0;
-1 x62 -1 x61 +1 x19 >= -1;
-1 x83 -1 x95 +1 x94 >= -1;
+1 x66 +1 x61 -2 x47 >= 0;
-1 x89 +1 x3 >= 0;
-1 x61 -1 x61 +1 x12 >= -1;
+1 x65 +1 x62 -2 x41 >= 0;
+1 x93 -1 x92 >= 0;
+1 x73 -1 x83 = 0;
-1 x64 -1 x64 +1 x36 >= -1;
+1 x88 -1 x92 >= 0;
-1 x88 +1 x93 >= 0;
+1 x66 +1 x63 -2 x49 >= 0;
+1 x2 -1 x3 +1 x1 >= 0;
+1 x65 +1 x66 -2 x45 >= 0;
+1 x62 +1 x62 -2 x20 >= 0;
+1 x90 -1 x89 >= 0;
-1 x66 -1 x63 +1 x49 >= -1;
+1 x61 +1 x63 -2 x14 >= 0;
+1 x11 -1 x4 = 0;
-1 x64 -1 x62 +1 x34 >= -1;
+1 x64 +1 x67 -2 x39 >= 0;
-1 x64 -1 x67 +1 x39 >= -1;
+1 x64 +1 x62 -2 x34 >= 0;
-1 x64 -1 x61 +1 x33 >= -1;
+1 x12 +2 x13 +4 x14 +8 x15 +16 x16 +32 x17 +64 x18 +2 x19 +4 x20 +8 x21 +16 x22 +32 x23 +64 x24 +128 x25 +4 x26 +8 x27 +16 x28 +32 x29 +64 x30 +128 x31 +256 x32 +8 x33 +16 x34 +32 x35 +64 x36 +128 x37 +256 x38 +512 x39 +16 x40 +32 x41 +64 x42 +128 x43 +256 x44 +512 x45 +1024 x46 +32 x47 +64 x48 +128 x49 +256 x50 +512 x51 +1024 x52 +2048 x53 +64 x54 +128 x55 +256 x56 +512 x57 +1024 x58 +2048 x59 +4096 x60 -1 x5 -2 x6 -4 x7 -8 x8 -16 x9 -32 x10 -64 x11 -128 x75 -256 x76 -512 x77 -1024 x78 -2048 x79 -4096 x80 -8192 x81 = 0;
-1 x63 -1 x67 +1 x32 >= -1;
+1 x63 +1 x63 -2 x28 >= 0;
+1 x73 -1 x66 = 0;
-1 x63 -1 x64 +1 x29 >= -1;
+1 x63 +1 x67 -2 x32 >= 0;
-1 x63 -1 x66 +1 x31 >= -1;
+1 x91 -1 x89 >= 0;
+1 x63 +1 x66 -2 x31 >= 0;
-1 x90 -1 x91 +1 x89 >= -1;
+1 x74 -1 x67 = 0;
-1 x63 -1 x65 +1 x30 >= -1;
-1 x63 -1 x63 +1 x28 >= -1;
-1 x62 -1 x64 +1 x22 >= -1;
+1 x4 +1 x82 +1 x85 +1 x89 +1 x92 +1 x94 -1 x3 >= 0;
-1 x62 -1 x63 +1 x21 >= -1;
-1 x66 -1 x65 +1 x51 >= -1;
+1 x83 +1 x88 +1 x90 -1 x91 >= 0;
+1 x66 +1 x66 -2 x52 >= 0;
+1 x62 +1 x64 -2 x22 >= 0;
+1 x66 +1 x67 -2 x53 >= 0;
+1 x148 = 1;
+1 x146 = 1;
+1 x145 = 0;
+1 x72 +1 x73 -2 x131 >= 0;
+1 x72 +1 x72 -2 x130 >= 0;
-1 x72 -1 x71 +1 x129 >= -1;
+1 x72 +1 x71 -2 x129 >= 0;
+1 x147 = 0;
-1 x72 -1 x70 +1 x128 >= -1;
+1 x72 +1 x70 -2 x128 >= 0;
+1 x68 +1 x73 -2 x107 >= 0;
+1 x144 = 1;
-1 x72 -1 x69 +1 x127 >= -1;
-1 x68 -1 x72 +1 x106 >= -1;
+1 x72 +1 x69 -2 x127 >= 0;
-1 x71 -1 x73 +1 x125 >= -1;
+1 x71 +1 x73 -2 x125 >= 0;
-1 x71 -1 x72 +1 x124 >= -1;
+1 x68 +1 x70 -2 x104 >= 0;
+1 x68 +1 x72 -2 x106 >= 0;
-1 x70 -1 x69 +1 x115 >= -1;
+1 x69 +1 x69 -2 x109 >= 0;
+1 x69 +1 x71 -2 x111 >= 0;
-1 x69 -1 x71 +1 x111 >= -1;
-1 x68 -1 x68 +1 x102 >= -1;
+1 x69 +1 x72 -2 x112 >= 0;
+1 x68 +1 x69 -2 x103 >= 0;
-1 x69 -1 x73 +1 x113 >= -1;
+1 x70 +1 x68 -2 x114 >= 0;
-1 x70 -1 x68 +1 x114 >= -1;
-1 x68 -1 x71 +1 x105 >= -1;
+1 x70 +1 x69 -2 x115 >= 0;
-1 x72 -1 x73 +1 x131 >= -1;
-1 x69 -1 x69 +1 x109 >= -1;
+1 x96 +2 x97 +4 x98 +8 x99 +16 x100 +32 x101 -1 x144 -2 x145 -4 x146 -8 x147 -16 x148 -32 x149 = 0;
-1 x71 -1 x71 +1 x123 >= -1;
-1 x73 -1 x69 +1 x133 >= -1;
-1 x68 -1 x70 +1 x104 >= -1;
-1 x69 -1 x68 +1 x108 >= -1;
-1 x73 -1 x73 +1 x137 >= -1;
+1 x149 = 1;
+1 x69 +1 x68 -2 x108 >= 0;
+1 x73 +1 x73 -2 x137 >= 0;
-1 x68 -1 x73 +1 x107 >= -1;
-1 x73 -1 x72 +1 x136 >= -1;
+1 x73 +1 x72 -2 x136 >= 0;
-1 x73 -1 x71 +1 x135 >= -1;
+1 x73 +1 x71 -2 x135 >= 0;
-1 x73 -1 x70 +1 x134 >= -1;
+1 x73 +1 x70 -2 x134 >= 0;
+1 x102 +2 x103 +4 x104 +8 x105 +16 x106 +32 x107 +2 x108 +4 x109 +8 x110 +16 x111 +32 x112 +64 x113 +4 x114 +8 x115 +16 x116 +32 x117 +64 x118 +128 x119 +8 x120 +16 x121 +32 x122 +64 x123 +128 x124 +256 x125 +16 x126 +32 x127 +64 x128 +128 x129 +256 x130 +512 x131 +32 x132 +64 x133 +128 x134 +256 x135 +512 x136 +1024 x137 -1 x96 -2 x97 -4 x98 -8 x99 -16 x100 -32 x101 -64 x138 -128 x139 -256 x140 -512 x141 -1024 x142 -2048 x143 = 0;
+1 x68 +1 x71 -2 x105 >= 0;
+1 x73 +1 x69 -2 x133 >= 0;
-1 x73 -1 x68 +1 x132 >= -1;
+1 x73 +1 x68 -2 x132 >= 0;
+1 x68 +1 x68 -2 x102 >= 0;
-1 x72 -1 x72 +1 x130 >= -1;
-1 x69 -1 x72 +1 x112 >= -1;
-1 x71 -1 x70 +1 x122 >= -1;
+1 x71 +1 x72 -2 x124 >= 0;
-1 x68 -1 x69 +1 x103 >= -1;
+1 x69 +1 x73 -2 x113 >= 0;
+1 x71 +1 x71 -2 x123 >= 0;
+1 x69 +1 x70 -2 x110 >= 0;
-1 x69 -1 x70 +1 x110 >= -1;
+1 x70 +1 x70 -2 x116 >= 0;
+1 x72 +1 x68 -2 x126 >= 0;
-1 x72 -1 x68 +1 x126 >= -1;
-1 x70 -1 x70 +1 x116 >= -1;
+1 x70 +1 x71 -2 x117 >= 0;
-1 x70 -1 x71 +1 x117 >= -1;
+1 x70 +1 x72 -2 x118 >= 0;
-1 x70 -1 x72 +1 x118 >= -1;
+1 x70 +1 x73 -2 x119 >= 0;
-1 x70 -1 x73 +1 x119 >= -1;
+1 x71 +1 x68 -2 x120 >= 0;
-1 x71 -1 x68 +1 x120 >= -1;
+1 x71 +1 x69 -2 x121 >= 0;
-1 x71 -1 x69 +1 x121 >= -1;
+1 x71 +1 x70 -2 x122 >= 0;
